
Gurobi 9.0.2 (win64) logging started Sat Nov  4 11:59:04 2023

Changed value of parameter LogFile to C:\Users\u0138303\OneDrive - KU Leuven\JointResearch\05. Models\06.Benchmarking\D.Representative_days_based_on_RES_and_Demand\RTS24_ByStages/openStarNet_RTS24_ByStages.log
   Prev:   Default: 
Changed value of parameter Method to 2
   Prev: -1  Min: -1  Max: 5  Default: -1
Changed value of parameter MIPFocus to 1
   Prev: 0  Min: 0  Max: 3  Default: 0
Changed value of parameter Presolve to 2
   Prev: -1  Min: -1  Max: 2  Default: -1
Changed value of parameter RINS to 100
   Prev: -1  Min: -1  Max: 2000000000  Default: -1
Parameter Crossover unchanged
   Value: -1  Min: -1  Max: 5  Default: -1
Changed value of parameter MIPGap to 0.01
   Prev: 0.0001  Min: 0.0  Max: inf  Default: 0.0001
Changed value of parameter Threads to 6
   Prev: 0  Min: 0  Max: 1024  Default: 0
Changed value of parameter TimeLimit to 604800.0
   Prev: inf  Min: 0.0  Max: inf  Default: inf
Changed value of parameter IterationLimit to 760000000.0
   Prev: inf  Min: 0.0  Max: inf  Default: inf
Gurobi Optimizer version 9.0.2 build v9.0.2rc0 (win64)
Optimize a model with 19227 rows, 10863 columns and 50601 nonzeros
Model fingerprint: 0x319496e6
Variable types: 10824 continuous, 39 integer (39 binary)
Coefficient statistics:
  Matrix range     [2e-02, 3e+03]
  Objective range  [1e+00, 1e+00]
  Bounds range     [4e-04, 3e+00]
  RHS range        [4e-04, 3e+00]
Presolve removed 9879 rows and 4819 columns
Presolve time: 0.07s
Presolved: 9348 rows, 6044 columns, 32532 nonzeros
Variable types: 6005 continuous, 39 integer (39 binary)
Presolved: 9348 rows, 6044 columns, 32532 nonzeros

Root barrier log...

Ordering time: 0.00s

Barrier statistics:
 Dense cols : 39
 AA' NZ     : 6.917e+04
 Factor NZ  : 2.231e+05 (roughly 8 MBytes of memory)
 Factor Ops : 6.674e+06 (less than 1 second per iteration)
 Threads    : 5

                  Objective                Residual
Iter       Primal          Dual         Primal    Dual     Compl     Time
   0   6.06783112e+05 -5.04206545e+07  4.37e+00 3.16e+02  7.53e+03     0s
   1   6.85034410e+04 -1.34209061e+07  3.58e-01 2.13e-09  9.34e+02     0s
   2   2.21914638e+04 -1.67725733e+06  7.49e-03 1.28e-09  9.04e+01     0s
   3   9.62688814e+03 -1.32285987e+05  7.74e-13 9.10e-11  7.45e+00     0s
   4   1.48729665e+03 -1.24585449e+04  9.93e-13 4.84e-12  7.32e-01     0s
   5   4.11999816e+02 -4.23917641e+03  3.36e-13 1.59e-12  2.44e-01     0s
   6   2.16726065e+02 -1.07944842e+03  1.71e-13 2.71e-12  6.80e-02     0s
   7   1.18532680e+02 -2.34081646e+02  2.59e-13 1.53e-12  1.85e-02     0s
   8   9.43057664e+01 -5.84312235e+01  1.39e-13 1.50e-12  8.01e-03     0s
   9   5.73500405e+01  1.03086424e+01  1.82e-13 1.25e-12  2.47e-03     0s
  10   4.84366278e+01  3.19494317e+01  3.09e-13 1.10e-12  8.65e-04     0s
  11   4.64916185e+01  3.62311889e+01  2.48e-12 1.15e-12  5.38e-04     0s
  12   4.57931281e+01  3.80125056e+01  2.16e-12 9.43e-13  4.08e-04     0s
  13   4.44050040e+01  3.97196666e+01  1.28e-12 9.74e-13  2.46e-04     0s
  14   4.29342829e+01  4.11358394e+01  1.81e-12 1.27e-12  9.44e-05     0s
  15   4.24708988e+01  4.16729208e+01  3.48e-12 1.47e-12  4.19e-05     0s
  16   4.22667283e+01  4.19568947e+01  9.66e-12 1.11e-12  1.63e-05     0s
  17   4.21492944e+01  4.20426552e+01  6.62e-11 1.83e-12  5.60e-06     0s
  18   4.21074691e+01  4.20931204e+01  1.20e-10 1.34e-12  7.53e-07     0s
  19   4.21001279e+01  4.20982941e+01  6.34e-11 1.36e-12  9.62e-08     0s
  20   4.20994312e+01  4.20993330e+01  3.23e-10 1.75e-12  5.15e-09     0s
  21   4.20994002e+01  4.20994002e+01  1.16e-10 1.25e-12  3.12e-13     0s

Barrier solved model in 21 iterations and 0.28 seconds
Optimal objective 4.20994002e+01


Root relaxation: objective 4.209940e+01, 543 iterations, 0.23 seconds

    Nodes    |    Current Node    |     Objective Bounds      |     Work
 Expl Unexpl |  Obj  Depth IntInf | Incumbent    BestBd   Gap | It/Node Time

     0     0   42.09940    0    8          -   42.09940      -     -    0s
H    0     0                      58.5161283   42.09940  28.1%     -    0s
H    0     0                      54.4347761   42.09940  22.7%     -    0s
     0     0   43.07880    0    8   54.43478   43.07880  20.9%     -    0s
H    0     0                      53.5701569   43.07880  19.6%     -    0s
     0     0   43.07880    0    8   53.57016   43.07880  19.6%     -    0s
H    0     0                      53.4343034   43.07880  19.4%     -    1s
     0     0   43.92142    0    8   53.43430   43.92142  17.8%     -    1s
H    0     0                      53.2686370   43.92142  17.5%     -    1s
     0     0   44.67537    0    8   53.26864   44.67537  16.1%     -    1s
     0     0   44.67537    0    8   53.26864   44.67537  16.1%     -    1s
     0     0   44.83770    0    9   53.26864   44.83770  15.8%     -    1s
H    0     0                      53.2638288   44.83770  15.8%     -    1s
     0     0   44.83770    0    9   53.26383   44.83770  15.8%     -    2s
     0     0   44.83770    0    9   53.26383   44.83770  15.8%     -    2s
     0     0   45.52271    0    9   53.26383   45.52271  14.5%     -    2s
     0     0   45.52271    0   11   53.26383   45.52271  14.5%     -    2s
     0     0   45.52271    0   11   53.26383   45.52271  14.5%     -    2s
     0     0   45.66631    0   10   53.26383   45.66631  14.3%     -    2s
H    0     0                      50.7448065   45.66631  10.0%     -    6s
     0     2   45.66631    0   10   50.74481   45.66631  10.0%     -    6s

Cutting planes:
  Gomory: 3
  Implied bound: 3
  MIR: 300

Explored 1 nodes (1853 simplex iterations) in 6.52 seconds
Thread count was 6 (of 8 available processors)

Solution count 7: 50.7448 53.2638 53.2686 ... 58.5161

Solve interrupted
Best objective 5.074480652057e+01, best bound 4.566631337378e+01, gap 10.0079%

Gurobi 9.5.0 (linux64) logging started Sat Nov  4 17:03:33 2023

Set parameter LogFile to value "/lustre1/scratch/348/vsc34888/JointResearch/05.Models/06.Benchmarking/D.Representative_days_based_on_RES_and_Demand/RTS24_ByStages/openStarNet_RTS24_ByStages.log"
Set parameter Method to value 2
Set parameter MIPFocus to value 1
Set parameter Presolve to value 2
Set parameter RINS to value 100
Set parameter MIPGap to value 0.01
Set parameter Threads to value 36
Set parameter TimeLimit to value 604800
Set parameter IterationLimit to value 760000000
Gurobi Optimizer version 9.5.0 build v9.5.0rc5 (linux64)
Thread count: 36 physical cores, 36 logical processors, using up to 36 threads
Optimize a model with 19226 rows, 10863 columns and 50600 nonzeros
Model fingerprint: 0xb522fcf0
Variable types: 10824 continuous, 39 integer (39 binary)
Coefficient statistics:
  Matrix range     [2e-02, 2e+03]
  Objective range  [1e+00, 1e+00]
  Bounds range     [4e-04, 3e+00]
  RHS range        [4e-04, 3e+00]
Presolve removed 9878 rows and 4819 columns
Presolve time: 0.07s
Presolved: 9348 rows, 6044 columns, 32532 nonzeros
Variable types: 6005 continuous, 39 integer (39 binary)
Found heuristic solution: objective 58.5161283
Root relaxation presolved: 9348 rows, 6044 columns, 32532 nonzeros

Root barrier log...

Ordering time: 0.00s

Barrier statistics:
 Dense cols : 39
 AA' NZ     : 6.917e+04
 Factor NZ  : 2.322e+05 (roughly 8 MB of memory)
 Factor Ops : 7.310e+06 (less than 1 second per iteration)
 Threads    : 36

                  Objective                Residual
Iter       Primal          Dual         Primal    Dual     Compl     Time
   0   5.71801118e+05 -5.02377289e+07  4.23e+00 3.16e+02  7.37e+03     0s
   1   4.98621556e+04 -1.30083812e+07  3.23e-01 1.63e-09  8.88e+02     0s
   2   1.17198575e+04 -1.59548805e+06  6.30e-03 3.86e-10  8.54e+01     0s
   3   6.79108484e+03 -2.27303011e+05  3.84e-06 6.77e-11  1.23e+01     0s
   4   2.18369324e+03 -2.13726118e+04  4.94e-08 2.69e-12  1.24e+00     0s
   5   4.23222284e+02 -6.78172286e+03  4.55e-09 1.82e-12  3.78e-01     0s
   6   2.14887657e+02 -2.48684277e+03  3.29e-10 9.09e-13  1.42e-01     0s
   7   1.81525951e+02 -7.00502139e+02  1.65e-10 9.09e-13  4.63e-02     0s
   8   1.07108854e+02 -1.76305046e+02  3.45e-11 1.82e-12  1.49e-02     0s
   9   7.53128178e+01 -5.58027646e+01  1.41e-11 1.82e-12  6.88e-03     0s
  10   5.32916936e+01  8.90866468e+00  3.55e-12 1.82e-12  2.33e-03     0s
  11   4.80612607e+01  2.73213144e+01  1.84e-12 1.82e-12  1.09e-03     0s
  12   4.52340629e+01  3.51498028e+01  9.30e-13 1.82e-12  5.29e-04     0s
  13   4.44806847e+01  3.95675576e+01  7.07e-13 9.09e-13  2.58e-04     0s
  14   4.34617989e+01  4.08161677e+01  1.57e-12 9.09e-13  1.39e-04     0s
  15   4.31906523e+01  4.13825744e+01  5.27e-12 9.09e-13  9.49e-05     0s
  16   4.23250677e+01  4.18878561e+01  4.31e-12 9.09e-13  2.29e-05     0s
  17   4.22107183e+01  4.19768315e+01  3.07e-11 9.09e-13  1.23e-05     0s
  18   4.21856251e+01  4.20674717e+01  3.21e-11 9.09e-13  6.20e-06     0s
  19   4.21179419e+01  4.20906031e+01  1.37e-10 1.82e-12  1.43e-06     0s
  20   4.21002794e+01  4.20986892e+01  1.57e-10 1.82e-12  8.34e-08     0s
  21   4.20994084e+01  4.20993766e+01  7.96e-10 2.73e-12  1.67e-09     0s
  22   4.20994002e+01  4.20994002e+01  2.90e-10 1.82e-12  1.81e-12     0s

Barrier solved model in 22 iterations and 0.44 seconds (0.28 work units)
Optimal objective 4.20994002e+01


Root relaxation: objective 4.209940e+01, 645 iterations, 0.33 seconds (0.14 work units)

    Nodes    |    Current Node    |     Objective Bounds      |     Work
 Expl Unexpl |  Obj  Depth IntInf | Incumbent    BestBd   Gap | It/Node Time

     0     0   42.09940    0    8   58.51613   42.09940  28.1%     -    0s
H    0     0                      54.4347761   42.09940  22.7%     -    0s
     0     0   42.93105    0    8   54.43478   42.93105  21.1%     -    0s
H    0     0                      53.5701569   42.93105  19.9%     -    0s
     0     0   43.07880    0    8   53.57016   43.07880  19.6%     -    0s
H    0     0                      53.4343034   43.07880  19.4%     -    0s
H    0     0                      53.2686370   43.11983  19.1%     -    0s
     0     0   43.90480    0    8   53.26864   43.90480  17.6%     -    0s
     0     0   44.20779    0    8   53.26864   44.20779  17.0%     -    0s
     0     0   44.23265    0    9   53.26864   44.23265  17.0%     -    1s
H    0     0                      53.2638288   44.23265  17.0%     -    1s
     0     0   44.67537    0    9   53.26383   44.67537  16.1%     -    1s
     0     0   44.67537    0    9   53.26383   44.67537  16.1%     -    1s
     0     0   45.52271    0    9   53.26383   45.52271  14.5%     -    1s
     0     0   45.52271    0    9   53.26383   45.52271  14.5%     -    1s
     0     0   45.66631    0    9   53.26383   45.66631  14.3%     -    1s
H    0     0                      50.7448065   45.66631  10.0%     -    3s
     0     2   45.66631    0    9   50.74481   45.66631  10.0%     -    3s

Cutting planes:
  Gomory: 4
  Implied bound: 10
  MIR: 240

Explored 162 nodes (16592 simplex iterations) in 4.58 seconds (4.18 work units)
Thread count was 36 (of 36 available processors)

Solution count 7: 50.7448 53.2638 53.2686 ... 58.5161

Optimal solution found (tolerance 1.00e-02)
Best objective 5.074480652057e+01, best bound 5.035346047922e+01, gap 0.7712%

Gurobi 9.5.0 (linux64) logging started Sat Nov  4 17:03:39 2023

Set parameter LogFile to value "/lustre1/scratch/348/vsc34888/JointResearch/05.Models/06.Benchmarking/D.Representative_days_based_on_RES_and_Demand/RTS24_ByStages/openStarNet_RTS24_ByStages.log"
Set parameter Method to value 2
Set parameter MIPFocus to value 1
Set parameter Presolve to value 2
Set parameter RINS to value 100
Set parameter MIPGap to value 0.01
Set parameter Threads to value 36
Set parameter TimeLimit to value 604800
Set parameter IterationLimit to value 760000000
No parameters matching 'relax_integrality' found
Gurobi Optimizer version 9.5.0 build v9.5.0rc5 (linux64)
Thread count: 36 physical cores, 36 logical processors, using up to 36 threads
Optimize a model with 19226 rows, 10824 columns and 44165 nonzeros
Model fingerprint: 0x7a28890a
Coefficient statistics:
  Matrix range     [2e-02, 2e+03]
  Objective range  [1e+00, 1e+00]
  Bounds range     [4e-04, 3e+00]
  RHS range        [4e-04, 1e+01]
Presolve removed 15582 rows and 5403 columns
Presolve time: 0.02s
Presolved: 3644 rows, 5503 columns, 13160 nonzeros

Ordering time: 0.00s

Barrier statistics:
 AA' NZ     : 8.632e+03
 Factor NZ  : 3.730e+04 (roughly 3 MB of memory)
 Factor Ops : 5.344e+05 (less than 1 second per iteration)
 Threads    : 1

                  Objective                Residual
Iter       Primal          Dual         Primal    Dual     Compl     Time
   0   1.07997827e+06 -3.13350818e+08  2.35e+00 7.51e+02  6.01e+04     0s
   1   8.97071902e+04 -4.27990615e+07  1.70e-01 5.05e-11  5.67e+03     0s
   2   4.33147763e+04 -4.68663920e+06  5.00e-02 5.09e-11  5.98e+02     0s
   3   2.39218781e+04 -5.02515107e+05  2.09e-03 4.73e-11  5.70e+01     0s
   4   1.10713207e+04 -8.48487170e+04  5.28e-05 2.07e-10  1.02e+01     0s
   5   3.55256587e+03 -1.54459473e+04  1.02e-05 1.16e-10  2.03e+00     0s
   6   5.10008156e+02 -4.27861983e+03  7.60e-07 3.04e-11  5.11e-01     0s
   7   1.67269352e+02 -6.58518859e+02  2.55e-13 1.46e-11  8.81e-02     0s
   8   1.00952139e+02 -1.43565682e+02  3.20e-13 1.46e-11  2.61e-02     0s
   9   7.41369210e+01 -2.25975485e+00  6.00e-13 1.46e-11  8.15e-03     0s
  10   6.15046209e+01  2.65744471e+01  1.47e-12 1.46e-11  3.73e-03     0s
  11   5.54123177e+01  3.99564047e+01  6.71e-13 7.28e-12  1.65e-03     0s
  12   5.23209697e+01  4.64631829e+01  1.65e-12 3.64e-12  6.25e-04     0s
  13   5.12204339e+01  5.02025625e+01  1.38e-12 7.28e-12  1.09e-04     0s
  14   5.07968873e+01  5.06926144e+01  4.58e-12 7.28e-12  1.11e-05     0s
  15   5.07471530e+01  5.07379381e+01  2.41e-11 1.46e-11  9.83e-07     0s
  16   5.07448092e+01  5.07447955e+01  8.01e-11 1.46e-11  1.46e-09     0s
  17   5.07448065e+01  5.07448065e+01  1.28e-11 3.64e-12  1.61e-15     0s

Barrier solved model in 17 iterations and 0.07 seconds (0.06 work units)
Optimal objective 5.07448065e+01

Crossover log...

     521 DPushes remaining with DInf 0.0000000e+00                 0s
       0 DPushes remaining with DInf 0.0000000e+00                 0s

     199 PPushes remaining with PInf 0.0000000e+00                 0s
       0 PPushes remaining with PInf 0.0000000e+00                 0s

  Push phase complete: Pinf 0.0000000e+00, Dinf 9.1505080e-13      0s

Iteration    Objective       Primal Inf.    Dual Inf.      Time
     255    5.0744807e+01   0.000000e+00   0.000000e+00      0s

Use crossover to convert LP symmetric solution to basic solution...
Crossover log...

       0 DPushes remaining with DInf 0.0000000e+00                 0s

     134 PPushes remaining with PInf 0.0000000e+00                 0s
       0 PPushes remaining with PInf 0.0000000e+00                 0s

  Push phase complete: Pinf 0.0000000e+00, Dinf 1.0858643e-12      0s

Iteration    Objective       Primal Inf.    Dual Inf.      Time
     409    5.0744807e+01   0.000000e+00   0.000000e+00      0s

Solved in 409 iterations and 0.10 seconds (0.07 work units)
Optimal objective  5.074480652e+01

Gurobi 9.0.2 (win64) logging started Mon Nov  6 09:24:56 2023

Changed value of parameter LogFile to C:\Users\u0138303\OneDrive - KU Leuven\JointResearch\05. Models\06.Benchmarking\D.Representative_days_based_on_RES_and_Demand\RTS24_ByStages/openStarNet_RTS24_ByStages.log
   Prev:   Default: 
Changed value of parameter Method to 2
   Prev: -1  Min: -1  Max: 5  Default: -1
Changed value of parameter MIPFocus to 1
   Prev: 0  Min: 0  Max: 3  Default: 0
Changed value of parameter Presolve to 2
   Prev: -1  Min: -1  Max: 2  Default: -1
Changed value of parameter RINS to 100
   Prev: -1  Min: -1  Max: 2000000000  Default: -1
Parameter Crossover unchanged
   Value: -1  Min: -1  Max: 5  Default: -1
Changed value of parameter MIPGap to 0.01
   Prev: 0.0001  Min: 0.0  Max: inf  Default: 0.0001
Changed value of parameter Threads to 6
   Prev: 0  Min: 0  Max: 1024  Default: 0
Changed value of parameter TimeLimit to 604800.0
   Prev: inf  Min: 0.0  Max: inf  Default: inf
Changed value of parameter IterationLimit to 760000000.0
   Prev: inf  Min: 0.0  Max: inf  Default: inf
Gurobi Optimizer version 9.0.2 build v9.0.2rc0 (win64)
Optimize a model with 19227 rows, 10863 columns and 50601 nonzeros
Model fingerprint: 0xf4ccff0e
Variable types: 10824 continuous, 39 integer (39 binary)
Coefficient statistics:
  Matrix range     [2e-02, 3e+03]
  Objective range  [1e+00, 1e+00]
  Bounds range     [4e-04, 3e+00]
  RHS range        [4e-04, 3e+00]
Presolve removed 9879 rows and 4819 columns
Presolve time: 0.13s
Presolved: 9348 rows, 6044 columns, 32532 nonzeros
Variable types: 6005 continuous, 39 integer (39 binary)
Presolved: 9348 rows, 6044 columns, 32532 nonzeros

Root barrier log...

Ordering time: 0.01s

Barrier statistics:
 Dense cols : 39
 AA' NZ     : 6.917e+04
 Factor NZ  : 2.231e+05 (roughly 8 MBytes of memory)
 Factor Ops : 6.674e+06 (less than 1 second per iteration)
 Threads    : 5

                  Objective                Residual
Iter       Primal          Dual         Primal    Dual     Compl     Time
   0   6.06783112e+05 -5.04206545e+07  4.37e+00 3.16e+02  7.53e+03     0s
   1   6.85034410e+04 -1.34209061e+07  3.58e-01 2.13e-09  9.34e+02     0s
   2   2.21914638e+04 -1.67725733e+06  7.49e-03 1.28e-09  9.04e+01     0s
   3   9.62688814e+03 -1.32285987e+05  7.74e-13 9.10e-11  7.45e+00     0s
   4   1.48729665e+03 -1.24585449e+04  9.93e-13 4.84e-12  7.32e-01     0s
   5   4.11999816e+02 -4.23917641e+03  3.36e-13 1.59e-12  2.44e-01     0s
   6   2.16726065e+02 -1.07944842e+03  1.71e-13 2.71e-12  6.80e-02     0s
   7   1.18532680e+02 -2.34081646e+02  2.59e-13 1.53e-12  1.85e-02     0s
   8   9.43057664e+01 -5.84312235e+01  1.39e-13 1.50e-12  8.01e-03     0s
   9   5.73500405e+01  1.03086424e+01  1.82e-13 1.25e-12  2.47e-03     0s
  10   4.84366278e+01  3.19494317e+01  3.09e-13 1.10e-12  8.65e-04     0s
  11   4.64916185e+01  3.62311889e+01  2.48e-12 1.15e-12  5.38e-04     0s
  12   4.57931281e+01  3.80125056e+01  2.16e-12 9.43e-13  4.08e-04     0s
  13   4.44050040e+01  3.97196666e+01  1.28e-12 9.74e-13  2.46e-04     0s
  14   4.29342829e+01  4.11358394e+01  1.81e-12 1.27e-12  9.44e-05     0s
  15   4.24708988e+01  4.16729208e+01  3.48e-12 1.47e-12  4.19e-05     0s
  16   4.22667283e+01  4.19568947e+01  9.66e-12 1.11e-12  1.63e-05     0s
  17   4.21492944e+01  4.20426552e+01  6.62e-11 1.83e-12  5.60e-06     0s
  18   4.21074691e+01  4.20931204e+01  1.20e-10 1.34e-12  7.53e-07     0s
  19   4.21001279e+01  4.20982941e+01  6.34e-11 1.36e-12  9.62e-08     0s
  20   4.20994312e+01  4.20993330e+01  3.23e-10 1.75e-12  5.15e-09     1s
  21   4.20994002e+01  4.20994002e+01  1.16e-10 1.25e-12  3.12e-13     1s

Barrier solved model in 21 iterations and 0.51 seconds
Optimal objective 4.20994002e+01


Root relaxation: objective 4.209940e+01, 543 iterations, 0.40 seconds

    Nodes    |    Current Node    |     Objective Bounds      |     Work
 Expl Unexpl |  Obj  Depth IntInf | Incumbent    BestBd   Gap | It/Node Time

     0     0   42.09940    0    8          -   42.09940      -     -    0s
H    0     0                      58.5161283   42.09940  28.1%     -    0s
H    0     0                      54.4347761   42.09940  22.7%     -    0s
     0     0   43.07880    0    8   54.43478   43.07880  20.9%     -    1s
H    0     0                      53.5701569   43.07880  19.6%     -    1s
     0     0   43.07880    0    8   53.57016   43.07880  19.6%     -    1s
H    0     0                      53.4343034   43.07880  19.4%     -    1s
     0     0   43.92142    0    8   53.43430   43.92142  17.8%     -    1s
H    0     0                      53.2686370   43.92142  17.5%     -    2s
     0     0   44.67537    0    8   53.26864   44.67537  16.1%     -    2s
     0     0   44.67537    0    8   53.26864   44.67537  16.1%     -    2s
     0     0   44.83770    0    9   53.26864   44.83770  15.8%     -    2s
H    0     0                      53.2638288   44.83770  15.8%     -    3s
     0     0   44.83770    0    9   53.26383   44.83770  15.8%     -    3s
     0     0   44.83770    0    9   53.26383   44.83770  15.8%     -    3s
     0     0   45.52271    0    9   53.26383   45.52271  14.5%     -    3s
     0     0   45.52271    0   11   53.26383   45.52271  14.5%     -    4s
     0     0   45.52271    0   11   53.26383   45.52271  14.5%     -    4s
     0     0   45.66631    0   10   53.26383   45.66631  14.3%     -    4s
H    0     0                      50.7448065   45.66631  10.0%     -    8s
     0     2   45.66631    0   10   50.74481   45.66631  10.0%     -    8s
    89    21   50.61171    9    2   50.74481   46.85451  7.67%   104   10s

Cutting planes:
  Gomory: 3
  Implied bound: 3
  MIR: 446

Explored 161 nodes (15252 simplex iterations) in 14.26 seconds
Thread count was 6 (of 8 available processors)

Solution count 7: 50.7448 53.2638 53.2686 ... 58.5161

Optimal solution found (tolerance 1.00e-02)
Best objective 5.074480652057e+01, best bound 5.055154631163e+01, gap 0.3808%

Gurobi 9.0.2 (win64) logging started Mon Nov  6 09:25:12 2023

Changed value of parameter LogFile to C:\Users\u0138303\OneDrive - KU Leuven\JointResearch\05. Models\06.Benchmarking\D.Representative_days_based_on_RES_and_Demand\RTS24_ByStages/openStarNet_RTS24_ByStages.log
   Prev:   Default: 
Changed value of parameter Method to 2
   Prev: -1  Min: -1  Max: 5  Default: -1
Changed value of parameter MIPFocus to 1
   Prev: 0  Min: 0  Max: 3  Default: 0
Changed value of parameter Presolve to 2
   Prev: -1  Min: -1  Max: 2  Default: -1
Changed value of parameter RINS to 100
   Prev: -1  Min: -1  Max: 2000000000  Default: -1
Parameter Crossover unchanged
   Value: -1  Min: -1  Max: 5  Default: -1
Changed value of parameter MIPGap to 0.01
   Prev: 0.0001  Min: 0.0  Max: inf  Default: 0.0001
Changed value of parameter Threads to 6
   Prev: 0  Min: 0  Max: 1024  Default: 0
Changed value of parameter TimeLimit to 604800.0
   Prev: inf  Min: 0.0  Max: inf  Default: inf
Changed value of parameter IterationLimit to 760000000.0
   Prev: inf  Min: 0.0  Max: inf  Default: inf
No parameters matching 'relax_integrality' found
Gurobi Optimizer version 9.0.2 build v9.0.2rc0 (win64)
Optimize a model with 19227 rows, 10824 columns and 44166 nonzeros
Model fingerprint: 0x8368211f
Coefficient statistics:
  Matrix range     [2e-02, 3e+03]
  Objective range  [1e+00, 1e+00]
  Bounds range     [4e-04, 3e+00]
  RHS range        [4e-04, 1e+01]
Presolve removed 15583 rows and 5403 columns
Presolve time: 0.02s
Presolved: 3644 rows, 5503 columns, 13160 nonzeros

Ordering time: 0.00s

Barrier statistics:
 AA' NZ     : 1.037e+04
 Factor NZ  : 4.848e+04 (roughly 4 MBytes of memory)
 Factor Ops : 7.313e+05 (less than 1 second per iteration)
 Threads    : 1

                  Objective                Residual
Iter       Primal          Dual         Primal    Dual     Compl     Time
   0   4.27659591e+05 -2.69582080e+07  4.77e+00 3.81e+02  4.58e+03     0s
   1   5.70098018e+04 -4.76685525e+06  4.00e-01 3.64e-12  5.18e+02     0s
   2   1.84446885e+04 -5.16620426e+05  2.66e-15 2.73e-12  4.46e+01     0s
   3   6.57922980e+03 -3.60676201e+04  7.11e-15 1.17e-12  3.56e+00     0s
   4   4.39979116e+02 -2.81098530e+03  1.13e-13 1.17e-12  2.71e-01     0s
   5   2.53247876e+02 -7.65110318e+02  9.84e-14 8.54e-13  8.50e-02     0s
   6   1.94079852e+02 -1.67791228e+02  3.95e-14 8.16e-13  3.02e-02     0s
   7   1.08053482e+02 -5.34313057e+01  4.66e-14 7.25e-13  1.35e-02     0s
   8   6.82387294e+01  1.30739981e+01  2.33e-13 7.53e-13  4.60e-03     0s
   9   5.66568667e+01  3.48316064e+01  4.32e-13 5.95e-13  1.82e-03     0s
  10   5.29012079e+01  4.58888832e+01  4.05e-13 1.53e-12  5.85e-04     0s
  11   5.09919450e+01  5.02028778e+01  8.48e-13 1.13e-12  6.58e-05     0s
  12   5.07793625e+01  5.07133106e+01  2.60e-12 9.69e-13  5.51e-06     0s
  13   5.07463011e+01  5.07407722e+01  4.66e-11 1.01e-12  4.61e-07     0s
  14   5.07448151e+01  5.07447897e+01  1.28e-10 9.10e-13  2.12e-09     0s
  15   5.07448065e+01  5.07448065e+01  2.53e-11 9.44e-13  2.28e-15     0s

Barrier solved model in 15 iterations and 0.07 seconds
Optimal objective 5.07448065e+01

Crossover log...

       0 DPushes remaining with DInf 0.0000000e+00                 0s

     208 PPushes remaining with PInf 0.0000000e+00                 0s
       0 PPushes remaining with PInf 0.0000000e+00                 0s

  Push phase complete: Pinf 0.0000000e+00, Dinf 1.1640144e-12      0s

Iteration    Objective       Primal Inf.    Dual Inf.      Time
     245    5.0744807e+01   0.000000e+00   0.000000e+00      0s

Solved in 245 iterations and 0.10 seconds
Optimal objective  5.074480652e+01
